;; sequence(s): A63225
;; terms: 3 8 12 18 22 28 32 38 42 48 52 58 62 68 72 78 82 88 92 98
;; small program: 2 + loop(2 * (2 + (x div 2)), x, 1 + x)
;; fast program: 2 + (((if x <= 0 then 1 else x) mod 2) + ((2 * (x + x)) + x))
(set-logic UFNIA)
(define-fun divf ((a Int) (b Int)) Int (ite (< 0 b) (div a b) (div (- a) (- b))))
(define-fun modf ((a Int) (b Int)) Int (ite (< 0 b) (mod a b) (- (mod (- a) (- b)))))
(declare-fun f0 (Int) Int)
(declare-fun g0 (Int) Int)
(declare-fun h0 (Int) Int)
(declare-fun u0 (Int Int) Int)
(declare-fun v0 (Int) Int)
(declare-fun small (Int) Int)
(declare-fun fast (Int) Int)
(assert (forall ((x Int)) (= (f0 x) (* 2 (+ 2 (divf x 2))))))
(assert (forall ((x Int)) (= (g0 x) x)))
(assert (forall ((x Int)) (= (h0 x) (+ 1 x))))
(assert (forall ((x Int) (y Int)) (= (u0 x y) (ite (<= x 0) y (f0 (u0 (- x 1) y))))))
(assert (forall ((x Int)) (= (v0 x) (u0 (g0 x) (h0 x)))))
(assert (forall ((x Int)) (= (small x) (+ 2 (v0 x)))))
(assert (forall ((x Int)) (= (fast x) (+ 2 (+ (modf (ite (<= x 0) 1 x) 2) (+ (* 2 (+ x x)) x))))))
(assert (exists ((c Int)) (and (>= c 0) (not (= (small c) (fast c))))))
(check-sat)
